NAME : rbg019d.tw.3479.tour
COMMENT : Length = 3479
COMMENT : Found by LKH [Keld Helsgaun] Tue Nov  7 19:33:18 2017
TYPE : TOUR
DIMENSION : 20
TOUR_SECTION
1
2
5
3
8
4
6
7
10
9
12
15
11
13
14
16
17
18
19
20
-1
EOF
